data;

set J := 1 2 3 4 5 6 7 8 9 10 11 12 13 14 15 16 17 18 19 20 21 22 23 24 25 26 27 28 29 30 31 32 33 34 35 36 37 38 39 40 41 42 43 44 45 46 47 48 49 50 51 52 53 54 55 56 57 58 59 60 61 62 63 64 65 66 67 68 69 70 71 72 73 74 75 76 77 78 79 80 81 82 83 84 85 86 87 88 89 90 91 92 93 94 95 96 97 98 99 100 101 102 103 104 105 106 107 108 109 110 111 112 113 114 115 116 117 118 119 120 121 122 123 124 125 126 127 128 129 130 131 132 133 134 135 136 137 138 139 140 141 142 143 144 145 146 147 148 149 150 151 152 153 154 155 156 157 158 159 160 161 162 163 164 165 166 167 168 169 170 171 172 173 174 175 176 177 178 179 180 181 182 183 184 185 186 187 188 189 190 191 192 193 194 195 196 197 198 199 200 201 202 203 204 205 206 207 208 209 210 211 212 213 214 215 216 217 218 219 220 221 222 223 224 225 226 227 228 229 230 231 232 233 234 235 236 237 238 239 240 241 242 243 244 245 246 247 248 249 250 251 252 253 254 255 256 257 258 259 260 261 262 263 264 265 266 267 268 269 270 271 272 273 274 275 276 277 278 279 280 281 282 283 284 285 286 287 288 289 290 291 292 293 294 295 296 297 298 299 300;
set I := 1 2 3 4 5 6 7 8 9 10 11 12 13 14 15 16 17 18 19 20 21 22 23 24 25 26 27 28 29 30 31 32 33 34 35 36 37 38 39 40 41 42 43 44 45 46 47 48 49 50 51 52 53 54 55 56 57 58 59 60 61 62 63 64 65 66 67 68 69 70 71 72 73 74 75 76 77 78 79 80 81 82 83 84 85 86 87 88 89 90 91 92 93 94 95 96 97 98 99 100 101 102 103 104 105 106 107 108 109 110 111 112 113 114 115 116 117 118 119 120 121 122 123 124 125 126 127 128 129 130 131 132 133 134 135 136 137 138 139 140 141 142 143 144 145 146 147 148 149 150 151 152 153 154 155 156 157 158 159 160 161 162 163 164 165 166 167 168 169 170 171 172 173 174 175 176 177 178 179 180 181 182 183 184 185 186 187 188 189 190 191 192 193 194 195 196 197 198 199 200 201 202 203 204 205 206 207 208 209 210 211 212 213 214 215 216 217 218 219 220 221 222 223 224 225 226 227 228 229 230 231 232 233 234 235 236 237 238 239 240 241 242 243 244 245 246 247 248 249 250 251 252 253 254 255;

param p := 
    1 59
    2 64
    3 149
    4 36
    5 122
    6 122
    7 121
    8 10
    9 108
    10 111
    11 54
    12 19
    13 120
    14 121
    15 164
    16 26
    17 34
    18 4
    19 8
    20 112
    21 166
    22 89
    23 15
    24 144
    25 104
    26 54
    27 131
    28 161
    29 49
    30 46
    31 125
    32 126
    33 90
    34 8
    35 141
    36 72
    37 30
    38 107
    39 144
    40 72
    41 79
    42 149
    43 66
    44 122
    45 113
    46 105
    47 114
    48 9
    49 65
    50 9
    51 26
    52 107
    53 5
    54 90
    55 139
    56 134
    57 111
    58 104
    59 29
    60 36
    61 145
    62 46
    63 92
    64 86
    65 124
    66 64
    67 76
    68 114
    69 73
    70 23
    71 92
    72 103
    73 75
    74 131
    75 106
    76 147
    77 160
    78 80
    79 49
    80 153
    81 86
    82 162
    83 137
    84 3
    85 79
    86 73
    87 48
    88 81
    89 103
    90 42
    91 145
    92 118
    93 136
    94 96
    95 97
    96 110
    97 15
    98 140
    99 122
    100 124
    101 37
    102 135
    103 16
    104 61
    105 73
    106 112
    107 34
    108 81
    109 158
    110 154
    111 5
    112 50
    113 121
    114 41
    115 146
    116 84
    117 100
    118 80
    119 26
    120 142
    121 39
    122 17
    123 54
    124 109
    125 29
    126 67
    127 116
    128 116
    129 83
    130 147
    131 14
    132 148
    133 79
    134 43
    135 108
    136 56
    137 109
    138 25
    139 91
    140 127
    141 116
    142 133
    143 37
    144 137
    145 88
    146 135
    147 94
    148 16
    149 102
    150 148
    151 142
    152 20
    153 124
    154 36
    155 101
    156 86
    157 69
    158 167
    159 156
    160 55
    161 75
    162 49
    163 68
    164 82
    165 39
    166 1
    167 70
    168 160
    169 91
    170 105
    171 107
    172 149
    173 123
    174 140
    175 124
    176 109
    177 114
    178 99
    179 18
    180 21
    181 73
    182 69
    183 16
    184 113
    185 36
    186 135
    187 131
    188 102
    189 42
    190 138
    191 60
    192 96
    193 50
    194 75
    195 26
    196 127
    197 152
    198 58
    199 9
    200 128
    201 158
    202 37
    203 94
    204 141
    205 117
    206 54
    207 23
    208 149
    209 46
    210 132
    211 61
    212 34
    213 58
    214 1
    215 135
    216 19
    217 165
    218 81
    219 29
    220 21
    221 22
    222 88
    223 20
    224 41
    225 92
    226 114
    227 62
    228 29
    229 110
    230 21
    231 100
    232 6
    233 120
    234 21
    235 148
    236 144
    237 109
    238 129
    239 96
    240 109
    241 76
    242 19
    243 130
    244 42
    245 6
    246 7
    247 63
    248 52
    249 5
    250 109
    251 19
    252 14
    253 63
    254 35
    255 23
    256 37
    257 129
    258 5
    259 158
    260 76
    261 32
    262 138
    263 164
    264 65
    265 165
    266 72
    267 128
    268 17
    269 4
    270 80
    271 45
    272 149
    273 55
    274 75
    275 41
    276 145
    277 63
    278 114
    279 71
    280 158
    281 2
    282 39
    283 156
    284 138
    285 50
    286 136
    287 131
    288 131
    289 157
    290 30
    291 79
    292 108
    293 84
    294 135
    295 48
    296 99
    297 59
    298 97
    299 54
    300 122;

param r := 
    1 174
    2 151
    3 106
    4 127
    5 89
    6 88
    7 136
    8 18
    9 113
    10 115
    11 59
    12 54
    13 165
    14 36
    15 70
    16 78
    17 164
    18 151
    19 66
    20 124
    21 55
    22 79
    23 36
    24 121
    25 171
    26 61
    27 127
    28 100
    29 14
    30 125
    31 134
    32 113
    33 171
    34 133
    35 131
    36 116
    37 92
    38 101
    39 162
    40 50
    41 93
    42 127
    43 106
    44 99
    45 173
    46 83
    47 21
    48 44
    49 112
    50 175
    51 89
    52 73
    53 34
    54 118
    55 131
    56 108
    57 157
    58 24
    59 70
    60 163
    61 42
    62 22
    63 99
    64 154
    65 77
    66 104
    67 107
    68 93
    69 163
    70 169
    71 21
    72 47
    73 36
    74 77
    75 65
    76 28
    77 20
    78 68
    79 67
    80 42
    81 120
    82 152
    83 158
    84 61
    85 75
    86 12
    87 129
    88 110
    89 55
    90 180
    91 136
    92 142
    93 61
    94 40
    95 142
    96 10
    97 130
    98 100
    99 178
    100 41
    101 98
    102 134
    103 3
    104 51
    105 4
    106 41
    107 174
    108 48
    109 47
    110 85
    111 61
    112 176
    113 96
    114 10
    115 113
    116 173
    117 32
    118 120
    119 162
    120 173
    121 103
    122 121
    123 175
    124 57
    125 166
    126 48
    127 176
    128 87
    129 171
    130 160
    131 18
    132 45
    133 102
    134 172
    135 38
    136 53
    137 74
    138 178
    139 77
    140 151
    141 176
    142 2
    143 35
    144 55
    145 98
    146 107
    147 86
    148 125
    149 171
    150 129
    151 170
    152 34
    153 119
    154 89
    155 154
    156 12
    157 161
    158 121
    159 24
    160 85
    161 101
    162 93
    163 69
    164 18
    165 108
    166 14
    167 48
    168 136
    169 53
    170 174
    171 84
    172 39
    173 121
    174 35
    175 126
    176 172
    177 164
    178 77
    179 175
    180 119
    181 170
    182 27
    183 66
    184 163
    185 164
    186 166
    187 73
    188 134
    189 84
    190 24
    191 168
    192 66
    193 120
    194 93
    195 102
    196 173
    197 91
    198 9
    199 53
    200 43
    201 172
    202 102
    203 122
    204 60
    205 34
    206 28
    207 93
    208 49
    209 178
    210 10
    211 54
    212 74
    213 132
    214 16
    215 30
    216 21
    217 96
    218 129
    219 65
    220 130
    221 64
    222 9
    223 160
    224 9
    225 76
    226 61
    227 26
    228 179
    229 66
    230 138
    231 23
    232 104
    233 94
    234 86
    235 40
    236 106
    237 119
    238 11
    239 86
    240 30
    241 48
    242 72
    243 48
    244 63
    245 151
    246 84
    247 103
    248 165
    249 43
    250 114
    251 58
    252 57
    253 107
    254 23
    255 33
    256 24
    257 167
    258 88
    259 13
    260 6
    261 60
    262 180
    263 131
    264 29
    265 43
    266 87
    267 176
    268 152
    269 70
    270 3
    271 177
    272 41
    273 131
    274 177
    275 155
    276 98
    277 53
    278 52
    279 67
    280 151
    281 39
    282 147
    283 52
    284 75
    285 72
    286 154
    287 129
    288 110
    289 113
    290 145
    291 147
    292 29
    293 15
    294 175
    295 109
    296 101
    297 58
    298 153
    299 85
    300 126;

param T := 167;
param R := 180;
param M := 1000000;

end;